2 1
1 2
3 1
1 3
4 1
1 4
5 1
1 5
6 1
1 6
7 1
1 7
8 1
1 8
10 1
1 10
11 1
1 11
12 1
1 12
14 1
1 14
15 1
1 15
17 1
1 17
3 2
2 3
4 2
2 4
5 2
2 5
6 2
2 6
7 2
2 7
8 2
2 8
10 2
2 10
11 2
2 11
12 2
2 12
14 2
2 14
15 2
2 15
17 2
2 17
4 3
3 4
6 3
3 6
7 3
3 7
9 3
3 9
10 3
3 10
11 3
3 11
12 3
3 12
14 3
3 14
15 3
3 15
6 4
4 6
7 4
4 7
8 4
4 8
9 4
4 9
10 4
4 10
11 4
4 11
12 4
4 12
13 4
4 13
14 4
4 14
7 6
6 7
8 6
6 8
9 6
6 9
10 6
6 10
11 6
6 11
12 6
6 12
13 6
6 13
14 6
6 14
15 6
6 15
7 8
9 7
7 9
10 7
7 10
11 7
7 11
12 7
7 12
14 7
7 14
15 7
7 15
9 8
8 9
10 8
11 8
12 8
13 8
8 13
14 8
8 14
10 9
9 10
11 9
9 11
12 9
9 12
13 9
9 13
14 9
9 14
11 10
10 11
12 10
10 12
14 10
10 14
15 10
10 15
12 11
11 12
14 11
11 14
17 11
11 17
13 12
12 13
14 12
12 14
15 12
12 15
17 12
12 17
14 13
13 14
2 3 1
1 3 2
1 2 3
3 1 2
2 1 3
2 4 1
1 4 2
1 2 4
4 1 2
2 1 4
2 6 1
1 6 2
1 2 6
6 1 2
2 1 6
2 7 1
1 7 2
1 2 7
7 1 2
2 1 7
2 10 1
1 10 2
1 2 10
10 1 2
2 1 10
2 11 1
1 11 2
1 2 11
11 1 2
2 1 11
2 12 1
1 12 2
1 2 12
12 1 2
2 1 12
1 2 12
2 14 1
1 14 2
1 2 14
14 1 2
2 1 14
1 2 14
2 15 1
1 15 2
1 2 15
15 1 2
3 10 1
1 10 3
1 3 10
10 1 3
3 1 10
3 11 1
1 11 3
1 3 11
11 1 3
3 1 11
3 12 1
1 12 3
1 3 12
12 1 3
3 1 12
3 14 1
1 14 3
1 3 14
3 1 14
4 7 1
1 7 4
1 4 7
7 1 4
4 1 7
4 12 1
1 12 4
1 4 12
12 1 4
4 14 1
1 14 4
1 4 14
6 7 1
1 7 6
1 6 7
7 1 6
6 1 7
1 6 7
6 10 1
1 10 6
1 6 10
10 1 6
6 1 10
7 12 1
1 12 7
1 7 12
12 1 7
7 1 12
7 14 1
1 14 7
1 7 14
14 1 7
7 1 14
10 11 1
1 11 10
1 10 11
11 1 10
10 1 11
10 12 1
1 12 10
1 10 12
12 1 10
10 1 12
10 14 1
1 14 10
1 10 14
10 1 14
11 12 1
1 12 11
1 11 12
12 1 11
11 1 12
1 11 12
11 14 1
1 14 11
1 11 14
14 1 11
11 1 14
11 17 1
1 17 11
1 11 17
17 1 11
11 1 17
12 14 1
1 14 12
1 12 14
14 1 12
12 1 14
7 15 6
6 15 7
6 7 15
15 6 7
7 6 15
6 7 15